(set-option :produce-models true)
(set-logic QF_UF)
(declare-fun p25() Bool)
(declare-fun p16() Bool)
(declare-fun p22() Bool)
(declare-fun p13() Bool)
(declare-fun p11() Bool)
(declare-fun p12() Bool)
(declare-fun p42() Bool)
(declare-fun p26() Bool)
(declare-fun p4() Bool)
(declare-fun p41() Bool)
(declare-fun p31() Bool)
(declare-fun p7() Bool)
(declare-fun p19() Bool)
(declare-fun p20() Bool)
(declare-fun p45() Bool)
(declare-fun p21() Bool)
(declare-fun p44() Bool)
(declare-fun p30() Bool)
(declare-fun p29() Bool)
(declare-fun p14() Bool)
(declare-fun p39() Bool)
(declare-fun p1() Bool)
(declare-fun p47() Bool)
(declare-fun p38() Bool)
(declare-fun p8() Bool)
(declare-fun p35() Bool)
(declare-fun p48() Bool)
(declare-fun p23() Bool)
(declare-fun p40() Bool)
(declare-fun p33() Bool)
(declare-fun p49() Bool)
(declare-fun p37() Bool)
(declare-fun p0() Bool)
(declare-fun p28() Bool)
(declare-fun p2() Bool)
(declare-fun p18() Bool)
(declare-fun p34() Bool)
(declare-fun p46() Bool)
(declare-fun p32() Bool)
(declare-fun p3() Bool)
(declare-fun p10() Bool)
(declare-fun p27() Bool)
(declare-fun p43() Bool)
(declare-fun p24() Bool)
(declare-fun p17() Bool)
(declare-fun p15() Bool)
(declare-fun p6() Bool)
(declare-fun p36() Bool)
(declare-fun p9() Bool)
(declare-fun p5() Bool)
(assert
(and (or (not p25) p16 (not p22)) (or p13 p11 p12) (or (not p42) p26 p4) (or p41 (not p31) (not p4)) (or (not p7) (not p19) p19) (or p20 (not p45) p21) (or (not p16) p44 (not p30)) (or (not p29) p14 (not p39)) (or (not p1) (not p47) p38) (or p8 (not p22) (not p38)) (or (not p35) (not p12) p13) (or (not p48) p29 p23) (or (not p40) p39 p41) (or p19 (not p8) (not p25)) (or (not p29) (not p31) (not p44)) (or (not p33) p14 (not p48)) (or (not p49) p37 p0) (or p41 (not p37) p28) (or (not p41) (not p2) p7) (or (not p38) (not p22) (not p11)) (or (not p40) p18 (not p2)) (or (not p34) (not p18) p26) (or p46 p32 p3) (or p34 p18 (not p31)) (or p33 (not p16) (not p46)) (or p10 p46 (not p21)) (or p7 (not p27) p14) (or p48 (not p4) p43) (or (not p24) (not p17) p19) (or p28 (not p39) p14) (or (not p25) p17 p28) (or p37 (not p13) p0) (or (not p26) p49 p40) (or (not p32) p14 (not p44)) (or (not p15) (not p43) (not p20)) (or (not p32) p8 (not p19)) (or (not p22) p19 p33) (or (not p1) p11 (not p22)) (or p39 p10 p19) (or p49 p28 (not p42)) (or p48 p11 p38) (or (not p7) p37 (not p31)) (or (not p6) (not p15) (not p6)) (or p2 (not p32) (not p36)) (or (not p34) (not p49) (not p38)) (or (not p11) p20 p43) (or p47 (not p33) (not p35)) (or p38 (not p2) p4) (or p44 (not p30) p4) (or (not p10) (not p9) (not p24)) (or (not p5) (not p10) (not p7)) (or (not p47) p47 p37) (or (not p34) p34 p23) (or p10 p15 p22) (or p8 (not p47) p38) (or p39 (not p36) (not p13)) (or p49 p10 p47) (or p49 p19 (not p46)) (or p0 (not p38) (not p37)) (or p46 (not p20) (not p29)) (or (not p38) (not p37) (not p44)) (or p48 (not p32) (not p48)) (or p44 p30 (not p44)) (or (not p49) p26 p30) (or p19 p45 p33) (or (not p11) p37 (not p14)) (or (not p19) p15 (not p0)) (or p21 (not p2) (not p45)) (or p46 p10 p12) (or (not p44) (not p36) (not p17)) (or p34 p30 (not p22)) (or (not p7) p19 p31) (or p48 (not p20) p28) (or (not p16) (not p17) (not p17)) (or (not p43) p47 p37) (or (not p29) p18 p30) (or p9 (not p17) (not p21)) (or (not p11) p38 p36) (or (not p25) p24 p10) (or p9 p20 (not p6)) (or p29 p25 p40) (or p23 (not p19) p20) (or (not p38) (not p13) p29) (or (not p3) p49 (not p30)) (or p5 p11 (not p22)) (or (not p19) p6 (not p4)) (or p22 p9 p12) (or (not p17) p40 p32) (or (not p28) (not p20) p36) (or p18 p8 (not p9)) (or (not p19) (not p0) p17) (or p25 p38 (not p36)) (or (not p13) p6 p40) (or (not p24) p6 p18) (or p49 p44 p13) (or (not p13) (not p20) (not p32)) (or p7 (not p1) (not p11)) (or p0 p33 p3) (or (not p44) p0 (not p13)) (or (not p4) (not p27) p36) (or (not p10) (not p14) p5) (or p22 p33 p2) (or p0 (not p25) (not p3)) (or p28 (not p19) (not p35)) (or (not p45) p29 (not p22)) (or (not p42) p12 (not p17)) (or p23 (not p22) (not p34)) (or (not p37) (not p39) p3) (or (not p40) p25 (not p49)) (or (not p7) (not p17) (not p22)) (or (not p37) p49 (not p42)) (or (not p16) (not p33) p37) (or (not p37) p20 p34) (or (not p22) (not p29) p49) (or p1 (not p0) (not p17)) (or p27 p28 (not p35)) (or p24 p26 (not p2)) (or p4 p49 p12) (or p3 (not p8) p47) (or (not p30) (not p27) p46) (or (not p24) (not p34) p21) (or p19 (not p25) (not p41)) (or p11 p7 (not p10)) (or p49 p2 p42) (or (not p49) p3 (not p13)) (or p7 p35 (not p2)) (or (not p37) (not p3) p11) (or p37 (not p23) (not p22)) (or p34 (not p47) p1) (or (not p37) (not p22) (not p31)) (or p41 (not p2) p10) (or p29 (not p15) (not p9)) (or (not p14) (not p22) p46) (or p5 (not p33) (not p46)) (or (not p43) (not p5) p24) (or (not p41) p0 p3) (or p49 p13 (not p11)) (or p31 (not p36) p41) (or p18 p30 p1) (or p24 (not p43) (not p44)) (or (not p11) (not p30) (not p5)) (or p34 p18 (not p1)) (or p36 p29 (not p4)) (or (not p35) p2 p17) (or p15 (not p43) p39) (or (not p9) (not p44) (not p38)) (or p7 (not p7) (not p47)) (or (not p31) (not p8) p26) (or (not p20) (not p48) (not p34)) (or p17 (not p41) p13) (or p33 p11 (not p28)) (or p25 (not p10) p10) (or p29 (not p16) (not p43)) (or p12 (not p44) p40) (or (not p41) p31 p44) (or (not p29) (not p44) (not p10)) (or (not p35) (not p21) (not p16)) (or (not p27) p15 (not p15)) (or p39 (not p12) (not p13)) (or p11 (not p42) (not p42)) (or p40 (not p9) p36) (or (not p42) p36 p31) (or (not p46) (not p23) (not p3)) (or p20 (not p48) p20) (or p36 p43 (not p31)) (or p42 (not p6) (not p25)) (or p34 (not p25) p36) (or p2 (not p49) p28) (or (not p7) (not p42) p3) (or (not p11) p24 p5) (or p17 (not p6) p42) (or (not p6) (not p21) p20) (or (not p15) p23 p19) (or p45 (not p49) p6) (or (not p19) (not p23) p15) (or p28 (not p41) (not p26)) (or p38 (not p6) p26) (or p9 (not p47) p20) (or p43 (not p41) (not p9)) (or (not p0) (not p2) p42) (or (not p23) (not p47) p14) (or p3 p27 (not p19)) (or (not p3) p22 (not p39)) (or (not p47) p10 p5) (or (not p20) p42 p9) (or p17 (not p2) (not p47)) (or p34 (not p47) (not p31)) (or p13 p14 (not p36)) (or p47 p45 p43) (or p19 p14 p15) (or p5 p46 p11) (or p2 p42 p35) (or p29 (not p32) (not p48)) (or p14 (not p39) p22) (or (not p14) (not p33) (not p42)) (or (not p16) (not p47) p37) (or (not p27) p16 (not p3)) (or p32 (not p27) p34) (or (not p30) p30 p0) (or (not p31) (not p18) (not p42)) (or p23 (not p29) p27) (or (not p24) p42 p16) (or p4 p10 (not p33)) (or p6 (not p18) p12) (or p8 (not p41) p43) (or (not p15) (not p45) (not p23)) (or p8 p23 (not p12)) (or (not p0) (not p21) p0) (or p39 (not p35) (not p2)) (or p24 (not p8) (not p23)))
)
(check-sat)
(get-model)
